100
128
8
56
17
47
26
38
21
63
34
41
3
8
17
34
55
35
12
18
49
23
26
3
28
54
42
15
58
20
35
62
29
40
22
45
64
34
37
30
42
46
40
30
20
23
55
20
32
62
34
4
54
29
54
36
45
4
45
53
32
30
30
17
57
24
48
28
2
25
36
44
47
51
20
56
38
30
62
40
23
37
30
27
64
23
25
42
28
57
54
38
64
62
44
44
63
64
40
36
6
1